s td 91 2 112
b 1 1 33
b 2 1 39
b 3 2 34
b 4 3 82
b 5 4
b 6 5 50
b 7 6 51
b 8 47 48
b 9 7 47
b 10 7 52
b 11 8 46
b 12 45 46
b 13 46
b 14 9
b 15 10
b 16 85 86
b 17 11 85
b 18 11 87
b 19 87 88
b 20 12
b 21 13 63
b 22 63 64
b 23 14 44
b 24 15
b 25 16
b 26 17
b 27 18 54
b 28 53 54
b 29 54
b 30 19
b 31 20
b 32 21 106
b 33 22
b 34 23
b 35 24
b 36 25
b 37 26 90
b 38 26 109
b 39 27 110
b 40 79 80
b 41 28 80
b 42 95 96
b 43 28 96
b 44 28 111
b 45 111 112
b 46 29
b 47 30 68
b 48 30 91
b 49 31
b 50 32 38
b 51 32 98
b 52 35
b 53 36
b 54 37
b 55 40
b 56 41
b 57 42
b 58 43
b 59 49
b 60 55 56
b 61 57
b 62 58
b 63 59
b 64 60
b 65 61 62
b 66 65 66
b 67 67
b 68 69
b 69 70
b 70 71 72
b 71 73
b 72 74
b 73 75
b 74 76
b 75 77
b 76 78
b 77 81
b 78 83
b 79 84
b 80 89
b 81 92
b 82 93
b 83 94
b 84 97
b 85 99
b 86 100
b 87 101 102
b 88 103
b 89 104
b 90 105
b 91 107 108
1 2
1 3
1 4
1 5
1 6
1 7
1 8
1 11
1 14
1 15
1 16
1 20
1 21
1 23
1 24
1 25
1 26
1 27
1 30
1 31
1 32
1 33
1 34
1 35
1 36
1 37
1 39
1 40
1 46
1 47
1 49
1 50
1 52
1 53
1 54
1 55
1 56
1 57
1 58
1 59
1 60
1 61
1 62
1 63
1 64
1 65
1 66
1 67
1 68
1 69
1 70
1 71
1 72
1 73
1 74
1 75
1 76
1 77
1 78
1 79
1 80
1 81
1 82
1 83
1 84
1 85
1 86
1 87
1 88
1 89
1 90
1 91
8 9
9 10
11 13
12 13
16 17
17 18
18 19
21 22
27 29
28 29
37 38
40 41
41 44
42 43
43 44
44 45
47 48
50 51
